
  22    4
  10   10   10   10

   0   0   0   0   0   5 2 3 5 8 9 
   5  10  10  10  10   2 10 4 
  10  10  10  10  10   5 21 17 13 11 6 
   3  10  10  10  10   5 21 17 12 11 7 
   2  10  10  10  10   4 21 13 11 6 
   7  10  10  10  10   3 14 12 10 
   1  10  10  10  10   3 16 15 13 
  10  10  10  10  10   3 21 15 11 
   4  10  10  10  10   3 20 16 11 
   5  10  10  10  10   3 19 16 15 
   5  10  10  10  10   2 18 14 
   5  10  10  10  10   2 20 18 
   3  10  10  10  10   1 14 
   1  10  10  10  10   1 19 
   9  10  10  10  10   1 20 
   7  10  10  10  10   1 18 
   6  10  10  10  10   1 18 
   5  10  10  10  10   1 22
  10  10  10  10  10   1 22
   5  10  10  10  10   1 22
  10  10  10  10  10   1 22
   0   0   0   0   0   0 
